
@set proj_name labeling

&GLOBAL
    PROJECT_NAME ${proj_name}
    RUN_TYPE ENERGY_FORCE
    PRINT_LEVEL MEDIUM
    WALLTIME 860000
&END GLOBAL

&FORCE_EVAL
  METHOD QUICKSTEP
  STRESS_TENSOR ANALYTICAL
  &PRINT
      &FORCES ON
      &END FORCES
      &STRESS_TENSOR
      &END STRESS_TENSOR
  &END PRINT
  &DFT
    BASIS_SET_FILE_NAME BASIS_MOLOPT
    POTENTIAL_FILE_NAME GTH_POTENTIALS
    WFN_RESTART_FILE_NAME ./${proj_name}-RESTART.wfn
    CHARGE 0
    UKS F
    &MGRID
      CUTOFF 1600
      REL_CUTOFF 90
    &END MGRID
    &QS
      EPS_DEFAULT 1.0E-13
      EXTRAPOLATION ASPC
      EXTRAPOLATION_ORDER 2
    &END QS
    &SCF
      SCF_GUESS RESTART
      EPS_SCF 1.0E-6
      MAX_SCF 21
      &OUTER_SCF
        EPS_SCF 1.0E-6
        MAX_SCF 50
      &END OUTER_SCF
      &OT
        MINIMIZER CG
        PRECONDITIONER FULL_SINGLE_INVERSE
      &END OT
&PRINT 
        &RESTART  OFF
        &END RESTART 
&END PRINT 

    &END SCF
    &XC
      &XC_FUNCTIONAL PBE
      &END XC_FUNCTIONAL
      &vdW_POTENTIAL
        DISPERSION_FUNCTIONAL PAIR_POTENTIAL
        &PAIR_POTENTIAL
          TYPE DFTD3
          PARAMETER_FILE_NAME dftd3.dat
          REFERENCE_FUNCTIONAL PBE
        &END PAIR_POTENTIAL
      &END vdW_POTENTIAL
   &END XC
    &PRINT
    &END PRINT
  &END DFT
  &SUBSYS
@include @DATA_FILE
    &KIND Si
            BASIS_SET DZVP-MOLOPT-SR-GTH
            POTENTIAL GTH-PBE-q4
    &END KIND
    &KIND I
            BASIS_SET DZVP-MOLOPT-SR-GTH
            POTENTIAL GTH-PBE-q7
    &END KIND
    &KIND Br
            BASIS_SET DZVP-MOLOPT-SR-GTH
            POTENTIAL GTH-PBE-q7
    &END KIND
    &KIND B
            BASIS_SET DZVP-MOLOPT-SR-GTH
            POTENTIAL GTH-PBE-q3
    &END KIND
    &KIND Cl
            BASIS_SET DZVP-MOLOPT-SR-GTH
            POTENTIAL GTH-PBE-q7
    &END KIND
    &KIND P
            BASIS_SET DZVP-MOLOPT-SR-GTH
            POTENTIAL GTH-PBE-q5
    &END KIND
    &KIND Li
            BASIS_SET DZVP-MOLOPT-SR-GTH
            POTENTIAL GTH-PBE-q3
    &END KIND
    &KIND F
            BASIS_SET DZVP-MOLOPT-SR-GTH
            POTENTIAL GTH-PBE-q7
    &END KIND
    &KIND S
            BASIS_SET DZVP-MOLOPT-SR-GTH
            POTENTIAL GTH-PBE-q6
    &END KIND
    &KIND N
            BASIS_SET DZVP-MOLOPT-SR-GTH
            POTENTIAL GTH-PBE-q5
    &END KIND
    &KIND H
            BASIS_SET DZVP-MOLOPT-SR-GTH
            POTENTIAL GTH-PBE-q1
    &END KIND
    &KIND O
            BASIS_SET DZVP-MOLOPT-SR-GTH
            POTENTIAL GTH-PBE-q6
    &END KIND
    &KIND C
            BASIS_SET DZVP-MOLOPT-SR-GTH
            POTENTIAL GTH-PBE-q4
    &END KIND
    &KIND Na
            BASIS_SET DZVP-MOLOPT-SR-GTH
            POTENTIAL GTH-PBE-q9
    &END KIND

    &KIND K
            BASIS_SET DZVP-MOLOPT-SR-GTH
            POTENTIAL GTH-PBE-q9
    &END KIND

    &KIND Mg
            BASIS_SET DZVP-MOLOPT-SR-GTH
            POTENTIAL GTH-PBE-q10
    &END KIND

    &KIND Zn
            BASIS_SET DZVP-MOLOPT-SR-GTH
            POTENTIAL GTH-PBE-q12
    &END KIND

  &END SUBSYS
&END FORCE_EVAL
